\* Problem: Unknown *\

Maximize
 obj: + xp_0_0 + xp_1_0 + xp_1_1 + xp_2_0 + xp_2_1 + xp_3_0 + xp_3_1
 + xp_3_2 + xp_4_0 + xp_4_1 + xp_5_0 + xp_5_1 + xp_6_0 + xp_7_0 + xp_8_0
 + xp_9_0 + xp_9_1 + xp_10_0 + xp_11_0 + xp_11_1 + xp_12_0 + xp_12_1
 + xp_13_0 + xp_13_1 + xp_14_0 + xp_14_1 + xp_15_0 + xp_16_0 + xp_17_0
 + xp_17_1 + xp_18_0 + xp_18_1 + xp_18_2 + xp_19_0 + xp_19_1 + xp_20_0
 + xp_21_0 + xp_22_0 + xp_22_1 + xp_23_0 + xp_24_0 + xp_24_1 + xp_24_2
 + xp_24_3 + xp_25_0 + xp_26_0 + xp_26_1 + xp_26_2 + xp_27_0 + xp_27_1
 + xp_28_0 + xp_28_1 + xp_29_0 + xp_30_0 + xp_30_1 + xp_30_2 + xp_31_0
 + xp_32_0 + xp_32_1 + xp_33_0 + xp_34_0 + xp_34_1 + xp_35_0 + xp_36_0
 + xp_37_0 + xp_38_0 + xp_38_1 + xp_39_0 + xp_40_0 + xp_40_1 + xp_41_0
 + xp_41_1 + xp_42_0 + xp_42_1 + xp_43_0 + xp_44_0 + xp_45_0 + xp_45_1
 + xp_46_0 + xp_47_0 + xp_48_0 + xp_48_1 + xp_49_0 + xp_50_0 + xp_50_1
 + xp_51_0 + xp_52_0 + xp_53_0 + xp_53_1 + xp_54_0 + xp_55_0 + xp_56_0
 + xp_57_0 + xp_57_1 + xp_58_0 + xp_58_1 + xp_59_0 + xp_60_0 + xp_60_1
 + xp_61_0 + xp_61_1 + xp_62_0 + xp_63_0 + xp_63_1 + xp_64_0 + xp_65_0
 + xp_66_0 + xp_67_0 + xp_67_1 + xp_68_0 + xp_68_1 + xp_68_2 + xp_69_0
 + xp_70_0 + xp_71_0 + xp_72_0 + xp_73_0 + xp_74_0 + xp_74_1 + xp_75_0
 + xp_76_0 + xp_77_0 + xp_77_1 + xp_78_0 + xp_78_1 + xp_78_2 + xp_79_0
 + xp_79_1 + xp_79_2 + xp_80_0 + xp_80_1 + xp_81_0 + xp_81_1 + xp_82_0
 + xp_82_1 + xp_82_2 + xp_83_0 + xp_83_1 + xp_84_0 + xp_85_0 + xp_85_1
 + xp_85_2 + xp_86_0 + xp_87_0 + xp_88_0 + xp_88_1 + xp_89_0 + xp_90_0
 + xp_90_1 + xp_90_2 + xp_91_0 + xp_91_1 + xp_91_2 + xp_92_0 + xp_92_1
 + xp_92_2 + xp_93_0 + xp_94_0 + xp_94_1 + xp_94_2 + xp_95_0 + xp_95_1
 + xp_95_2 + xp_96_0 + xp_96_1 + xp_97_0 + xp_98_0 + xp_98_1 + xp_98_2
 + xp_98_3 + xp_99_0 + xp_99_1 + xp_99_2 + xp_100_0 + xp_101_0
 + xp_101_1 + xp_102_0 + xp_103_0 + xp_104_0 + xp_104_1 + xp_105_0
 + xp_105_1 + xp_106_0 + xp_106_1 + xp_107_0 + xp_108_0 + xp_108_1
 + xp_109_0 + xp_109_1 + xp_110_0 + xp_111_0 + xp_111_1 + xp_112_0
 + xp_113_0 + xp_114_0 + xp_115_0 + xp_115_1 + xp_116_0 + xp_116_1
 + xp_117_0 + xp_118_0 + xp_119_0 + xp_119_1 + xp_119_2 + xp_120_0
 + xp_120_1 + xp_120_2 + xp_121_0 + xp_122_0 + xp_123_0 + xp_123_1
 + xp_124_0 + xp_125_0 + xp_125_1 + xp_126_0 + xp_126_1 + xp_126_2
 + xp_127_0 + xp_127_1 + xp_128_0 + xp_128_1 + xp_129_0 + xp_129_1
 + xp_130_0 + xp_131_0 + xp_131_1 + xp_131_2

Subject To
 r_1: + xp_128_1 + xp_123_1 + xp_122_0 + xp_121_0 + xp_108_1 + xp_107_0
 + xp_78_2 + xp_67_1 + xp_57_1 + xp_40_1 + xp_25_0 + xp_22_1 + xp_18_2
 + xp_18_1 + xp_16_0 + xp_13_1 + xp_4_0 <= 39484.32760364
 r_2: + xp_131_2 + xp_131_0 + xp_127_0 + xp_126_1 + xp_120_1 + xp_120_0
 + xp_94_1 + xp_93_0 + xp_90_2 + xp_85_2 + xp_85_1 + xp_85_0 + xp_77_1
 + xp_75_0 + xp_74_1 + xp_71_0 + xp_66_0 + xp_65_0 + xp_61_1 + xp_55_0
 + xp_52_0 + xp_48_1 + xp_48_0 + xp_42_1 + xp_38_1 + xp_32_0 + xp_28_1
 + xp_28_0 + xp_24_3 + xp_24_1 + xp_24_0 + xp_19_1 + xp_19_0 + xp_12_1
 + xp_1_1 <= 34909.426987061
 r_3: + xp_114_0 + xp_105_1 + xp_98_3 + xp_95_1 + xp_94_2 + xp_92_2
 + xp_91_1 + xp_85_2 + xp_83_1 + xp_79_1 + xp_76_0 + xp_68_2 + xp_41_1
 + xp_34_0 + xp_30_2 + xp_26_2 + xp_24_3 <= 37114.7318397828
 r_4: + xp_119_2 + xp_117_0 + xp_104_1 + xp_95_2 + xp_95_0 + xp_91_2
 + xp_91_0 + xp_88_1 + xp_84_0 + xp_82_2 + xp_79_2 + xp_79_0 + xp_46_0
 + xp_43_0 + xp_40_1 + xp_40_0 + xp_34_1 + xp_27_1 + xp_18_2 + xp_3_2
 <= 35686.9315461944
 r_5: + xp_130_0 + xp_119_2 + xp_104_1 + xp_99_0 + xp_88_1 + xp_82_2
 + xp_27_1 + xp_18_2 + xp_7_0 + xp_3_2 + xp_2_0 <= 37114.7318397828
 r_6: + xp_126_2 + xp_119_0 + xp_114_0 + xp_95_1 + xp_92_2 + xp_92_1
 + xp_91_1 + xp_83_1 + xp_83_0 + xp_82_1 + xp_81_0 + xp_79_1 + xp_70_0
 + xp_68_2 + xp_68_1 + xp_58_1 + xp_53_0 + xp_48_1 + xp_45_0 + xp_34_0
 + xp_32_1 + xp_30_2 + xp_30_1 + xp_18_1 + xp_5_1 <= 38762.5113739763
 r_7: + xp_119_1 + xp_111_1 + xp_104_0 + xp_88_0 + xp_82_0 + xp_81_1
 + xp_78_1 + xp_53_1 + xp_50_1 + xp_45_1 + xp_44_0 + xp_27_0 + xp_18_0
 + xp_4_1 + xp_3_1 <= 35686.9315461944
 r_8: + xp_131_2 + xp_131_0 + xp_127_0 + xp_126_1 + xp_120_1 + xp_120_0
 + xp_118_0 + xp_103_0 + xp_94_1 + xp_90_2 + xp_77_1 + xp_74_1 + xp_71_0
 + xp_61_1 + xp_55_0 + xp_42_1 + xp_38_1 + xp_32_0 + xp_24_3 + xp_24_1
 + xp_24_0 + xp_12_1 + xp_1_1 <= 39484.32760364
 r_9: + xp_131_1 + xp_127_1 + xp_123_1 + xp_122_0 + xp_120_2 + xp_108_1
 + xp_78_2 + xp_77_0 + xp_67_1 + xp_57_1 + xp_42_0 + xp_33_0 + xp_32_1
 + xp_24_2 <= 39484.32760364
 r_10: + xp_111_1 + xp_106_0 + xp_99_0 + xp_98_0 + xp_88_1 + xp_88_0
 + xp_85_0 + xp_78_1 + xp_50_1 + xp_26_0 + xp_24_0 + xp_8_0 + xp_7_0
 + xp_4_1 + xp_3_2 + xp_3_1 + xp_2_0 <= 38762.5113739763
 r_11: + xp_119_0 + xp_112_0 + xp_111_0 + xp_95_1 + xp_91_1 + xp_82_1
 + xp_81_0 + xp_79_1 + xp_78_2 + xp_78_0 + xp_59_0 + xp_53_0 + xp_50_0
 + xp_49_0 + xp_45_0 + xp_34_0 + xp_18_1 + xp_4_0 + xp_3_0
 <= 36180.8219178082
 r_12: + xp_129_1 + xp_128_0 + xp_123_0 + xp_119_1 + xp_117_0 + xp_111_1
 + xp_101_0 + xp_95_0 + xp_91_2 + xp_82_2 + xp_82_0 + xp_81_1 + xp_80_1
 + xp_79_2 + xp_78_1 + xp_78_0 + xp_73_0 + xp_63_1 + xp_60_1 + xp_50_1
 + xp_46_0 + xp_45_1 + xp_44_0 + xp_40_0 + xp_18_0 + xp_17_1 + xp_15_0
 + xp_14_0 + xp_13_0 + xp_9_0 + xp_4_1 <= 35798.3193277311
 r_13: + xp_129_0 + xp_128_1 + xp_123_1 + xp_120_2 + xp_120_1 + xp_119_2
 + xp_109_1 + xp_101_1 + xp_100_0 + xp_96_1 + xp_95_2 + xp_91_0
 + xp_90_0 + xp_80_0 + xp_79_0 + xp_68_0 + xp_63_0 + xp_60_0 + xp_53_1
 + xp_40_1 + xp_34_1 + xp_31_0 + xp_30_0 + xp_18_2 + xp_17_0 + xp_13_1
 + xp_9_1 <= 36180.8219178082
 r_14: + xp_131_2 + xp_131_1 + xp_131_0 + xp_126_2 + xp_125_1 + xp_125_0
 + xp_124_0 + xp_115_1 + xp_115_0 + xp_106_1 + xp_99_2 + xp_99_1
 + xp_98_3 + xp_98_2 + xp_98_1 + xp_94_2 + xp_94_1 + xp_94_0 + xp_92_2
 + xp_92_1 + xp_86_0 + xp_85_2 + xp_85_1 + xp_77_1 + xp_77_0 + xp_68_2
 + xp_68_1 + xp_65_0 + xp_58_1 + xp_56_0 + xp_51_0 + xp_48_1 + xp_41_1
 + xp_41_0 + xp_38_1 + xp_38_0 + xp_35_0 + xp_32_1 + xp_30_2 + xp_30_1
 + xp_26_2 + xp_26_1 + xp_24_3 + xp_24_2 + xp_24_1 + xp_20_0 + xp_19_1
 + xp_19_0 + xp_12_1 + xp_12_0 + xp_5_1 + xp_2_1 + xp_0_0
 <= 35686.9315461944
 r_15: + xp_131_1 + xp_131_0 + xp_126_2 + xp_125_0 + xp_124_0 + xp_120_2
 + xp_120_1 + xp_116_0 + xp_115_0 + xp_109_1 + xp_99_1 + xp_98_3
 + xp_98_1 + xp_96_1 + xp_94_2 + xp_94_0 + xp_92_2 + xp_92_1 + xp_90_0
 + xp_89_0 + xp_86_0 + xp_85_2 + xp_85_1 + xp_77_1 + xp_77_0 + xp_68_2
 + xp_68_1 + xp_68_0 + xp_65_0 + xp_58_1 + xp_51_0 + xp_48_1 + xp_42_1
 + xp_42_0 + xp_38_1 + xp_38_0 + xp_36_0 + xp_32_1 + xp_28_0 + xp_26_1
 + xp_24_2 + xp_24_1 + xp_19_1 + xp_12_0 + xp_11_1 + xp_0_0
 <= 35798.3193277311
 r_16: + xp_128_0 + xp_123_0 + xp_108_0 + xp_78_1 + xp_78_0 + xp_73_0
 + xp_67_0 + xp_57_0 + xp_46_0 + xp_44_0 + xp_40_0 + xp_22_0 + xp_18_0
 + xp_13_0 + xp_6_0 + xp_4_1 <= 35798.3193277311
 r_17: + xp_129_1 + xp_126_0 + xp_119_1 + xp_111_1 + xp_109_0 + xp_97_0
 + xp_95_0 + xp_91_2 + xp_90_1 + xp_81_1 + xp_80_1 + xp_79_2 + xp_63_1
 + xp_62_0 + xp_61_0 + xp_60_1 + xp_47_0 + xp_45_1 + xp_22_1 + xp_17_1
 + xp_9_0 + xp_1_0 <= 34909.426987061
 r_18: + xp_126_1 + xp_126_0 + xp_106_0 + xp_99_0 + xp_98_0 + xp_92_0
 + xp_85_0 + xp_68_0 + xp_58_0 + xp_48_0 + xp_32_0 + xp_30_0 + xp_26_0
 + xp_24_0 + xp_5_0 + xp_2_0 <= 36180.8219178082
 r_19: + xp_131_2 + xp_125_1 + xp_116_1 + xp_115_1 + xp_110_0 + xp_106_1
 + xp_99_2 + xp_98_2 + xp_94_1 + xp_78_0 + xp_56_0 + xp_28_1 + xp_26_2
 + xp_24_3 + xp_19_0 + xp_14_0 + xp_12_1 + xp_11_0 + xp_5_1 + xp_3_0
 + xp_2_1 <= 36180.8219178082
 r_20: + xp_129_0 + xp_128_1 + xp_123_1 + xp_119_2 + xp_119_0 + xp_112_0
 + xp_111_0 + xp_108_1 + xp_108_0 + xp_107_0 + xp_101_1 + xp_95_2
 + xp_95_1 + xp_91_1 + xp_91_0 + xp_82_1 + xp_81_0 + xp_80_0 + xp_79_1
 + xp_79_0 + xp_78_2 + xp_69_0 + xp_64_0 + xp_63_0 + xp_60_0 + xp_50_0
 + xp_49_0 + xp_45_0 + xp_40_1 + xp_18_2 + xp_18_1 + xp_17_0 + xp_14_1
 + xp_13_1 + xp_10_0 + xp_9_1 + xp_4_0 <= 34909.426987061
 r_21: + xp_113_0 + xp_105_1 + xp_99_2 + xp_99_1 + xp_98_3 + xp_94_2
 + xp_92_2 + xp_86_0 + xp_85_2 + xp_83_1 + xp_77_1 + xp_77_0 + xp_68_2
 + xp_65_0 + xp_41_1 + xp_38_1 + xp_38_0 + xp_30_2 + xp_26_2 + xp_24_3
 + xp_20_0 + xp_2_1 + xp_0_0 <= 35686.9315461944
 r_22: + xp_126_2 + xp_124_0 + xp_106_1 + xp_105_0 + xp_98_2 + xp_98_1
 + xp_94_1 + xp_94_0 + xp_92_1 + xp_85_1 + xp_83_0 + xp_68_1 + xp_58_1
 + xp_48_1 + xp_41_0 + xp_32_1 + xp_30_1 + xp_26_1 + xp_24_2 + xp_24_1
 + xp_5_1 <= 35686.9315461944
 r_23: + xp_128_1 + xp_128_0 + xp_119_2 + xp_119_1 + xp_117_0 + xp_111_1
 + xp_104_1 + xp_104_0 + xp_100_0 + xp_95_2 + xp_95_0 + xp_91_2
 + xp_91_0 + xp_84_0 + xp_82_2 + xp_82_0 + xp_81_1 + xp_80_1 + xp_80_0
 + xp_79_2 + xp_79_0 + xp_78_1 + xp_73_0 + xp_60_1 + xp_60_0 + xp_53_1
 + xp_50_1 + xp_46_0 + xp_45_1 + xp_44_0 + xp_40_1 + xp_40_0 + xp_34_1
 + xp_21_0 + xp_18_2 + xp_18_0 + xp_15_0 + xp_9_1 + xp_9_0 + xp_4_1
 + xp_3_2 + xp_3_1 <= 35686.9315461944
 r_24: + xp_128_0 + xp_126_1 + xp_103_0 + xp_94_1 + xp_90_2 + xp_74_1
 + xp_61_1 + xp_40_0 + xp_39_0 + xp_38_1 + xp_22_0 + xp_18_0 + xp_13_0
 + xp_12_1 + xp_4_1 + xp_1_1 <= 39484.32760364
 r_25: + xp_131_1 + xp_127_1 + xp_126_2 + xp_126_0 + xp_120_2 + xp_94_2
 + xp_94_0 + xp_90_1 + xp_90_0 + xp_89_0 + xp_77_0 + xp_74_0 + xp_61_0
 + xp_42_0 + xp_38_0 + xp_32_1 + xp_24_2 + xp_12_0 + xp_1_0
 <= 35798.3193277311
 r_26: + xp_128_1 + xp_123_1 + xp_121_0 + xp_112_0 + xp_108_1 + xp_107_0
 + xp_81_1 + xp_81_0 + xp_79_2 + xp_79_1 + xp_79_0 + xp_78_2 + xp_67_1
 + xp_64_0 + xp_60_1 + xp_60_0 + xp_57_1 + xp_47_0 + xp_40_1 + xp_37_0
 + xp_29_0 + xp_25_0 + xp_22_1 + xp_18_2 + xp_18_1 + xp_17_1 + xp_17_0
 + xp_13_1 + xp_4_0 <= 34909.426987061
 r_27: + xp_131_0 + xp_127_0 + xp_125_0 + xp_120_1 + xp_116_0 + xp_115_0
 + xp_108_0 + xp_101_1 + xp_99_1 + xp_98_3 + xp_98_1 + xp_96_1 + xp_92_2
 + xp_92_1 + xp_86_0 + xp_85_2 + xp_85_1 + xp_82_1 + xp_77_1 + xp_74_1
 + xp_72_0 + xp_67_0 + xp_65_0 + xp_58_1 + xp_57_0 + xp_52_0 + xp_50_0
 + xp_48_1 + xp_42_1 + xp_38_1 + xp_28_0 + xp_26_1 + xp_24_1 + xp_23_0
 + xp_19_1 + xp_14_1 + xp_11_1 <= 34909.426987061
 r_28: + xp_131_2 + xp_126_1 + xp_126_0 + xp_125_1 + xp_120_0 + xp_116_1
 + xp_115_1 + xp_109_0 + xp_99_2 + xp_99_0 + xp_98_2 + xp_98_0 + xp_96_0
 + xp_94_1 + xp_92_0 + xp_90_2 + xp_90_1 + xp_85_0 + xp_75_0 + xp_58_0
 + xp_54_0 + xp_48_0 + xp_32_0 + xp_28_1 + xp_26_2 + xp_26_0 + xp_24_3
 + xp_24_0 + xp_19_0 + xp_12_1 + xp_11_0 <= 34909.426987061
 r_29: + xp_129_1 + xp_129_0 + xp_95_2 + xp_95_1 + xp_95_0 + xp_93_0
 + xp_87_0 + xp_71_0 + xp_62_0 + xp_49_0 + xp_45_1 + xp_45_0 + xp_10_0
 + xp_9_1 + xp_9_0 + xp_1_1 + xp_1_0 <= 34909.426987061
 r_30: + xp_125_1 + xp_125_0 + xp_121_0 + xp_102_0 + xp_99_2 + xp_99_1
 + xp_99_0 + xp_96_1 + xp_96_0 + xp_92_2 + xp_92_1 + xp_92_0 + xp_57_1
 + xp_57_0 + xp_37_0 + xp_26_2 + xp_26_1 + xp_26_0 + xp_23_0 + xp_11_1
 + xp_11_0 <= 34909.426987061

Bounds
 0 <= xp_0_0 <= 225.431152822171
 0 <= xp_1_0 <= 104.655468153757
 0 <= xp_1_1 <= 69.7703121025044
 0 <= xp_2_0 <= 21.9763889203737
 0 <= xp_2_1 <= 87.9055556814947
 0 <= xp_3_0 <= 69.6695607492878
 0 <= xp_3_1 <= 69.6695607492878
 0 <= xp_3_2 <= 34.8347803746439
 0 <= xp_4_0 <= 602.94647332482
 0 <= xp_4_1 <= 150.736618331205
 0 <= xp_5_0 <= 828.024996410733
 0 <= xp_5_1 <= 207.006249102683
 0 <= xp_6_0 <= 1711.95439993753
 0 <= xp_7_0 <= 609.797565343549
 0 <= xp_8_0 <= 1442.38156048733
 0 <= xp_9_0 <= 41.3584304954196
 0 <= xp_9_1 <= 62.0376457431294
 0 <= xp_10_0 <= 52.3907036726387
 0 <= xp_11_0 <= 15.8683381316165
 0 <= xp_11_1 <= 23.8025071974248
 0 <= xp_12_0 <= 1579.93234546631
 0 <= xp_12_1 <= 394.983086366579
 0 <= xp_13_0 <= 144.439658755167
 0 <= xp_13_1 <= 96.2931058367778
 0 <= xp_14_0 <= 42.0259082104796
 0 <= xp_14_1 <= 168.103632841919
 0 <= xp_15_0 <= 484.488069780387
 0 <= xp_16_0 <= 2523.12873252279
 0 <= xp_17_0 <= 227.043174473637
 0 <= xp_17_1 <= 56.7607936184093
 0 <= xp_18_0 <= 205.797232864084
 0 <= xp_18_1 <= 68.5990776213613
 0 <= xp_18_2 <= 68.5990776213613
 0 <= xp_19_0 <= 404.567058841309
 0 <= xp_19_1 <= 606.850588261963
 0 <= xp_20_0 <= 122.538833349705
 0 <= xp_21_0 <= 262.268366341995
 0 <= xp_22_0 <= 706.329955644217
 0 <= xp_22_1 <= 470.886637096144
 0 <= xp_23_0 <= 49.6830110549422
 0 <= xp_24_0 <= 65.097968097084
 0 <= xp_24_1 <= 65.097968097084
 0 <= xp_24_2 <= 130.195936194168
 0 <= xp_24_3 <= 65.097968097084
 0 <= xp_25_0 <= 553.061959563444
 0 <= xp_26_0 <= 2.93438316243385
 0 <= xp_26_1 <= 8.80314948730155
 0 <= xp_26_2 <= 2.93438316243385
 0 <= xp_27_0 <= 258.326469647395
 0 <= xp_27_1 <= 64.5816174118488
 0 <= xp_28_0 <= 510.305604042144
 0 <= xp_28_1 <= 127.576401010536
 0 <= xp_29_0 <= 2339.32048249823
 0 <= xp_30_0 <= 35.0488770002292
 0 <= xp_30_1 <= 105.146631000688
 0 <= xp_30_2 <= 35.0488770002292
 0 <= xp_31_0 <= 182.171040534788
 0 <= xp_32_0 <= 1290.889307007
 0 <= xp_32_1 <= 860.592871338003
 0 <= xp_33_0 <= 7702.88174058038
 0 <= xp_34_0 <= 97.653249105202
 0 <= xp_34_1 <= 390.612996420808
 0 <= xp_35_0 <= 249.485538402638
 0 <= xp_36_0 <= 304.835813076014
 0 <= xp_37_0 <= 348.725621321001
 0 <= xp_38_0 <= 256.009188523413
 0 <= xp_38_1 <= 64.0022971308533
 0 <= xp_39_0 <= 1503.83988594947
 0 <= xp_40_0 <= 486.969071853346
 0 <= xp_40_1 <= 324.646047902231
 0 <= xp_41_0 <= 61.1056957258757
 0 <= xp_41_1 <= 15.2764239314689
 0 <= xp_42_0 <= 86.8224786344161
 0 <= xp_42_1 <= 347.289914537665
 0 <= xp_43_0 <= 470.319910734301
 0 <= xp_44_0 <= 438.331356088026
 0 <= xp_45_0 <= 32.542687088966
 0 <= xp_45_1 <= 8.13567177224149
 0 <= xp_46_0 <= 1534.6320182763
 0 <= xp_47_0 <= 840.140346635031
 0 <= xp_48_0 <= 1666.8933572114
 0 <= xp_48_1 <= 1111.26223814094
 0 <= xp_49_0 <= 84.1903495316321
 0 <= xp_50_0 <= 599.772805698496
 0 <= xp_50_1 <= 149.943201424624
 0 <= xp_51_0 <= 678.245515935086
 0 <= xp_52_0 <= 633.159285370651
 0 <= xp_53_0 <= 145.233075661747
 0 <= xp_53_1 <= 36.3082689154369
 0 <= xp_54_0 <= 3530.5163254974
 0 <= xp_55_0 <= 1132.88599732505
 0 <= xp_56_0 <= 91.5577922355969
 0 <= xp_57_0 <= 157.575116430783
 0 <= xp_57_1 <= 39.3937791076956
 0 <= xp_58_0 <= 3476.72769679888
 0 <= xp_58_1 <= 869.181924199719
 0 <= xp_59_0 <= 10174.6902525585
 0 <= xp_60_0 <= 518.365712299473
 0 <= xp_60_1 <= 129.591428074868
 0 <= xp_61_0 <= 1387.98842366952
 0 <= xp_61_1 <= 925.325615779677
 0 <= xp_62_0 <= 125.435434754683
 0 <= xp_63_0 <= 100.801728893221
 0 <= xp_63_1 <= 25.2004322233053
 0 <= xp_64_0 <= 950.526048002982
 0 <= xp_65_0 <= 499.348894379838
 0 <= xp_66_0 <= 1605.91360067705
 0 <= xp_67_0 <= 309.407405728218
 0 <= xp_67_1 <= 77.3518514320545
 0 <= xp_68_0 <= 281.675595755345
 0 <= xp_68_1 <= 845.026787266036
 0 <= xp_68_2 <= 281.675595755345
 0 <= xp_69_0 <= 1642.81378379263
 0 <= xp_70_0 <= 603.815453746313
 0 <= xp_71_0 <= 67.7552850381721
 0 <= xp_72_0 <= 572.645503844923
 0 <= xp_73_0 <= 882.329975794487
 0 <= xp_74_0 <= 728.986416198802
 0 <= xp_74_1 <= 182.246604049701
 0 <= xp_75_0 <= 1686.2628048673
 0 <= xp_76_0 <= 1646.21414196369
 0 <= xp_77_0 <= 437.56312701975
 0 <= xp_77_1 <= 109.390781754937
 0 <= xp_78_0 <= 5352.02522813884
 0 <= xp_78_1 <= 16056.0756844165
 0 <= xp_78_2 <= 5352.02522813884
 0 <= xp_79_0 <= 407.488848084591
 0 <= xp_79_1 <= 407.488848084591
 0 <= xp_79_2 <= 203.744424042295
 0 <= xp_80_0 <= 172.486316706841
 0 <= xp_80_1 <= 43.1215791767103
 0 <= xp_81_0 <= 199.58843072211
 0 <= xp_81_1 <= 49.8971076805275
 0 <= xp_82_0 <= 84.0770042592634
 0 <= xp_82_1 <= 84.0770042592634
 0 <= xp_82_2 <= 42.0385021296317
 0 <= xp_83_0 <= 385.474677406761
 0 <= xp_83_1 <= 96.3686693516902
 0 <= xp_84_0 <= 851.160025893097
 0 <= xp_85_0 <= 78.1704561769395
 0 <= xp_85_1 <= 234.511368530819
 0 <= xp_85_2 <= 78.1704561769395
 0 <= xp_86_0 <= 163.972827360037
 0 <= xp_87_0 <= 135.132752501782
 0 <= xp_88_0 <= 244.032371409788
 0 <= xp_88_1 <= 162.688247606526
 0 <= xp_89_0 <= 2124.21634338076
 0 <= xp_90_0 <= 12455.6253258677
 0 <= xp_90_1 <= 4151.87510862255
 0 <= xp_90_2 <= 4151.87510862255
 0 <= xp_91_0 <= 1041.24004765539
 0 <= xp_91_1 <= 1041.24004765539
 0 <= xp_91_2 <= 520.620023827695
 0 <= xp_92_0 <= 38.3862655755295
 0 <= xp_92_1 <= 12.7954218585098
 0 <= xp_92_2 <= 12.7954218585098
 0 <= xp_93_0 <= 124.805738797079
 0 <= xp_94_0 <= 136.08989035734
 0 <= xp_94_1 <= 45.3632967857799
 0 <= xp_94_2 <= 45.3632967857799
 0 <= xp_95_0 <= 23.4750652994708
 0 <= xp_95_1 <= 11.7375326497354
 0 <= xp_95_2 <= 23.4750652994708
 0 <= xp_96_0 <= 66.2692025782271
 0 <= xp_96_1 <= 44.1794683854847
 0 <= xp_97_0 <= 504.76427961523
 0 <= xp_98_0 <= 27.3791802366145
 0 <= xp_98_1 <= 54.7583604732291
 0 <= xp_98_2 <= 27.3791802366145
 0 <= xp_98_3 <= 27.3791802366145
 0 <= xp_99_0 <= 3.13588586886708
 0 <= xp_99_1 <= 9.40765760660122
 0 <= xp_99_2 <= 3.13588586886708
 0 <= xp_100_0 <= 481.65443797117
 0 <= xp_101_0 <= 191.427571111564
 0 <= xp_101_1 <= 47.8568927778911
 0 <= xp_102_0 <= 71.7853391668367
 0 <= xp_103_0 <= 1378.78226876935
 0 <= xp_104_0 <= 75.790205457197
 0 <= xp_104_1 <= 50.5268036381314
 0 <= xp_105_0 <= 1110.78366921316
 0 <= xp_105_1 <= 277.695917303289
 0 <= xp_106_0 <= 7.93416906580826
 0 <= xp_106_1 <= 31.7366762632331
 0 <= xp_107_0 <= 430.71203500102
 0 <= xp_108_0 <= 487.875834032296
 0 <= xp_108_1 <= 325.25055602153
 0 <= xp_109_0 <= 555.467398121491
 0 <= xp_109_1 <= 370.311598747661
 0 <= xp_110_0 <= 127.576401010536
 0 <= xp_111_0 <= 2240.9115982439
 0 <= xp_111_1 <= 560.227899560976
 0 <= xp_112_0 <= 4483.24630935199
 0 <= xp_113_0 <= 407.413284569678
 0 <= xp_114_0 <= 2296.37521818965
 0 <= xp_115_0 <= 169.26227340391
 0 <= xp_115_1 <= 42.3155683509774
 0 <= xp_116_0 <= 122.362518481576
 0 <= xp_116_1 <= 30.5906296203941
 0 <= xp_117_0 <= 1861.06640269812
 0 <= xp_118_0 <= 3021.28120458318
 0 <= xp_119_0 <= 36.0815783706995
 0 <= xp_119_1 <= 12.0271927902332
 0 <= xp_119_2 <= 12.0271927902332
 0 <= xp_120_0 <= 1246.72243254067
 0 <= xp_120_1 <= 415.574144180224
 0 <= xp_120_2 <= 415.574144180224
 0 <= xp_121_0 <= 72.3520655286801
 0 <= xp_122_0 <= 2178.55910452197
 0 <= xp_123_0 <= 393.685912693915
 0 <= xp_123_1 <= 98.4214781734787
 0 <= xp_124_0 <= 131.858333522242
 0 <= xp_125_0 <= 20.9059057924472
 0 <= xp_125_1 <= 5.22647644811179
 0 <= xp_126_0 <= 4861.1394474292
 0 <= xp_126_1 <= 9722.2788948584
 0 <= xp_126_2 <= 9722.2788948584
 0 <= xp_127_0 <= 331.459358163504
 0 <= xp_127_1 <= 220.972905442336
 0 <= xp_128_0 <= 155.585277204754
 0 <= xp_128_1 <= 233.377915807132
 0 <= xp_129_0 <= 37.5298790731883
 0 <= xp_129_1 <= 9.38246976829707
 0 <= xp_130_0 <= 386.570348372991
 0 <= xp_131_0 <= 147.059193938799
 0 <= xp_131_1 <= 294.118387877597
 0 <= xp_131_2 <= 294.118387877597

End
